(set-info :origin "NTS benchmark converted to SMT-LIB2 using Eldarica (http://lara.epfl.ch/w/eldarica)")
(set-logic HORN)
(declare-fun p (Real Real Real Real Real) Bool)
(assert(forall((A Real)(B Real)(C Real)(D Real)(E Real))(=>(and (and (= A 0.0) true) true) (p A B C D E))))
(assert(forall((A Real)(B Real)(C Real)(D Real)(E Real)(F Real)(G Real)(H Real)(I Real)(J Real)(K Real)(L Real)(M Real)(N Real)(O Real)(P Real)(Q Real)(R Real)(S Real)(T Real)(U Real)(V Real)(W Real)(X Real)(Y Real))(=>(and (or (or (or (or (or (or (and (and (and (and (= A 1.0) (= F 0.0)) (and (and (and (= G B) (= H C)) (= I D)) (= J E))) true) (and (and (and (and (and (and (and (and (and (and (and (and (and (and (and (and (not (not (>= (+ K 0.0) 0.0))) (not (not (<= K 1.0)))) (not (not (>= (+ L 0.0) 0.0)))) (not (not (<= L 1.0)))) (not (not (>= (+ M 0.0) 0.0)))) (not (not (<= M 1.0)))) (not (not (>= (+ N 0.0) 0.0)))) (not (not (<= N 1.0)))) (not (and (or (not (= N 0.0)) (<= G 0.0)) (or (= N 0.0) (not (<= G 0.0)))))) (not (not (>= J O)))) (not (not (>= O J)))) (not (not (>= (+ I 0.0) 0.0)))) (not (not (<= I 0.0)))) (not (not (= K 0.0)))) (not (and (= K 0.0) (not (= M 0.0))))) (not (and (= K 0.0) (or (or (not (= L 0.0)) (not (= M 0.0))) (not (= N 0.0)))))) (not (not (= H (+ 1.0 G)))))) (and (and (and (and (= A 1.0) (= F 1.0)) (and (and (and (= G B) (= H C)) (= I D)) (= J E))) (and (and (and (= G P) (= H Q)) (= L R)) (= S T))) (and (and (and (and (and (and (and (and (and (and (and (and (and (and (and (and (not (not (>= (+ M 0.0) 0.0))) (not (not (<= M 1.0)))) (not (not (>= (+ N 0.0) 0.0)))) (not (not (<= N 1.0)))) (not (not (>= (+ U 0.0) 0.0)))) (not (not (<= U 1.0)))) (not (and (or (not (= N 0.0)) (<= V 0.0)) (or (= N 0.0) (not (<= V 0.0)))))) (not (and (or (not (= U 0.0)) (not (= (+ O 0.0) 0.0))) (or (= U 0.0) (not (= O S)))))) (not (and (or (not (= U 0.0)) (>= (+ S 0.0) 0.0)) (or (= U 0.0) (not (>= (+ S 0.0) 0.0)))))) (not (not (= V (+ L H))))) (not (not (>= J O)))) (not (not (>= O J)))) (not (not (>= I K)))) (not (not (>= K I)))) (not (not (= N 0.0)))) (not (not (= M 0.0)))) (not (not (= K (+ 1.0 L))))))) (and (and (and (and (= A 2.0) (= F 0.0)) (and (= G B) (= H C))) true) (and (and (and (and (and (and (and (and (and (and (and (and (and (and (and (not (not (>= (+ L 0.0) 0.0))) (not (not (<= L 1.0)))) (not (not (>= (+ N 0.0) 0.0)))) (not (not (<= N 1.0)))) (not (not (>= (+ K 0.0) 0.0)))) (not (not (<= K 1.0)))) (not (not (>= (+ M 0.0) 0.0)))) (not (not (<= M 1.0)))) (not (not (>= (+ I 0.0) 0.0)))) (not (not (<= I 1.0)))) (not (and (or (not (= N 0.0)) (<= G 0.0)) (or (= N 0.0) (not (<= G 0.0)))))) (not (= I 0.0))) (not (not (= K 0.0)))) (not (and (= K 0.0) (not (= M 0.0))))) (not (and (= K 0.0) (or (or (or (or (not (= L 0.0)) (not (= M 0.0))) (= N 0.0)) (not (>= G J))) (not (>= J G)))))) (not (and (or (not (= I 0.0)) (<= J 0.0)) (or (= I 0.0) (not (<= J 0.0)))))))) (and (and (and (and (= A 2.0) (= F 1.0)) (and (= G B) (= H C))) (and (and (and (= G P) (= U Q)) (= V R)) (= W T))) (and (and (and (and (and (and (and (and (and (and (and (and (and (and (and (and (and (and (and (and (and (not (not (>= (+ L 0.0) 0.0))) (not (not (<= L 1.0)))) (not (not (>= (+ N 0.0) 0.0)))) (not (not (<= N 1.0)))) (not (not (>= (+ S 0.0) 0.0)))) (not (not (<= S 1.0)))) (not (not (>= (+ K 0.0) 0.0)))) (not (not (<= K 1.0)))) (not (not (>= (+ I 0.0) 0.0)))) (not (not (<= I 1.0)))) (not (not (>= (+ M 0.0) 0.0)))) (not (not (<= M 1.0)))) (not (not (= X (+ 1.0 V))))) (not (and (or (not (= N 0.0)) (<= O 0.0)) (or (= N 0.0) (not (<= O 0.0)))))) (not (and (or (not (= S 0.0)) (not (= (+ Y 0.0) 0.0))) (or (= S 0.0) (not (= Y W)))))) (not (and (or (not (= S 0.0)) (>= (+ W 0.0) 0.0)) (or (= S 0.0) (not (>= (+ W 0.0) 0.0)))))) (not (not (= O (+ V U))))) (not (= I 0.0))) (not (not (= K 0.0)))) (not (and (= K 0.0) (not (= M 0.0))))) (not (and (= K 0.0) (or (or (or (or (not (= L 0.0)) (not (= M 0.0))) (= N 0.0)) (not (>= O J))) (not (>= J O)))))) (not (and (or (not (= I 0.0)) (<= J 0.0)) (or (= I 0.0) (not (<= J 0.0)))))))) (and (and (and (and (= A 2.0) (= F 2.0)) (and (= G B) (= H C))) (and (= G P) (= H Q))) (and (and (not (not (>= (+ I 0.0) 0.0))) (not (not (<= I 1.0)))) (not (not (= I 0.0)))))) (and (and (and (and (= A 3.0) (= F 0.0)) true) true) (and (and (and (and (and (and (and (and (and (and (and (and (and (and (and (not (not (>= (+ J 0.0) 0.0))) (not (not (<= J 1.0)))) (not (not (>= (+ L 0.0) 0.0)))) (not (not (<= L 1.0)))) (not (not (>= (+ I 0.0) 0.0)))) (not (not (<= I 1.0)))) (not (not (>= (+ K 0.0) 0.0)))) (not (not (<= K 1.0)))) (not (not (>= (+ G 0.0) 0.0)))) (not (not (<= G 1.0)))) (not (and (or (not (= L 0.0)) (<= M 0.0)) (or (= L 0.0) (not (<= M 0.0)))))) (not (not (= G 0.0)))) (not (not (= I 0.0)))) (not (and (= I 0.0) (not (= K 0.0))))) (not (and (= I 0.0) (or (or (or (or (not (= J 0.0)) (not (= K 0.0))) (= L 0.0)) (not (>= M H))) (not (>= H M)))))) (not (and (or (not (= G 0.0)) (<= H 0.0)) (or (= G 0.0) (not (<= H 0.0)))))))) (and (and (and (and (= A 3.0) (= F 1.0)) true) (and (and (and (= Y P) (= O Q)) (= N R)) (= U T))) (and (and (and (and (and (and (and (and (and (and (and (and (and (and (and (and (and (and (and (and (and (not (not (>= (+ J 0.0) 0.0))) (not (not (<= J 1.0)))) (not (not (>= (+ L 0.0) 0.0)))) (not (not (<= L 1.0)))) (not (not (>= (+ V 0.0) 0.0)))) (not (not (<= V 1.0)))) (not (not (>= (+ I 0.0) 0.0)))) (not (not (<= I 1.0)))) (not (not (>= (+ G 0.0) 0.0)))) (not (not (<= G 1.0)))) (not (not (>= (+ K 0.0) 0.0)))) (not (not (<= K 1.0)))) (not (not (= W (+ 1.0 N))))) (not (and (or (not (= L 0.0)) (<= M 0.0)) (or (= L 0.0) (not (<= M 0.0)))))) (not (and (or (not (= V 0.0)) (not (= (+ S 0.0) 0.0))) (or (= V 0.0) (not (= S U)))))) (not (and (or (not (= V 0.0)) (>= (+ U 0.0) 0.0)) (or (= V 0.0) (not (>= (+ U 0.0) 0.0)))))) (not (not (= M (+ N O))))) (not (not (= G 0.0)))) (not (not (= I 0.0)))) (not (and (= I 0.0) (not (= K 0.0))))) (not (and (= I 0.0) (or (or (or (or (not (= J 0.0)) (not (= K 0.0))) (= L 0.0)) (not (>= M H))) (not (>= H M)))))) (not (and (or (not (= G 0.0)) (<= H 0.0)) (or (= G 0.0) (not (<= H 0.0)))))))) (p F P Q R T)) (p A B C D E))))
(assert(not (exists((A Real)(B Real)(C Real)(D Real)(E Real))(and (and (and (= A 3.0) true) true) (p A B C D E)))))
(check-sat)
